12° run output:
{
    "Function": "kroA400.tsp",
    "Problem dimension": [
        195,
        33,
        169,
        393,
        110,
        205,
        359,
        137,
        64,
        285,
        116,
        203,
        360,
        398,
        36,
        356,
        82,
        138,
        370,
        232,
        192,
        383,
        86,
        62,
        43,
        135,
        289,
        372,
        301,
        44,
        9,
        117,
        6,
        8,
        60,
        83,
        237,
        204,
        299,
        355,
        252,
        363,
        126,
        94,
        112,
        199,
        279,
        3,
        331,
        262,
        90,
        357,
        226,
        145,
        309,
        106,
        180,
        239,
        134,
        89,
        227,
        233,
        276,
        375,
        340,
        220,
        104,
        358,
        354,
        328,
        261,
        399,
        335,
        21,
        364,
        181,
        49,
        34,
        20,
        306,
        158,
        292,
        0,
        23,
        59,
        57,
        288,
        38,
        185,
        176,
        45,
        148,
        247,
        236,
        111,
        79,
        25,
        296,
        392,
        206,
        14,
        150,
        219,
        302,
        188,
        214,
        153,
        312,
        164,
        125,
        174,
        321,
        191,
        13,
        245,
        380,
        345,
        40,
        234,
        127,
        39,
        165,
        15,
        163,
        353,
        263,
        215,
        308,
        240,
        310,
        322,
        379,
        325,
        187,
        387,
        157,
        103,
        77,
        166,
        92,
        202,
        66,
        159,
        27,
        339,
        17,
        48,
        368,
        265,
        293,
        224,
        343,
        151,
        307,
        228,
        124,
        160,
        11,
        396,
        259,
        300,
        67,
        55,
        385,
        183,
        81,
        295,
        350,
        149,
        369,
        338,
        269,
        179,
        346,
        287,
        71,
        326,
        284,
        120,
        278,
        140,
        333,
        186,
        5,
        362,
        342,
        42,
        73,
        88,
        26,
        241,
        193,
        201,
        132,
        231,
        46,
        147,
        281,
        129,
        294,
        173,
        84,
        146,
        314,
        200,
        332,
        115,
        290,
        12,
        311,
        222,
        274,
        254,
        223,
        61,
        72,
        141,
        344,
        16,
        30,
        313,
        225,
        154,
        58,
        51,
        361,
        258,
        213,
        95,
        98,
        50,
        391,
        142,
        161,
        378,
        377,
        28,
        109,
        273,
        283,
        280,
        266,
        381,
        315,
        366,
        189,
        352,
        316,
        272,
        182,
        156,
        108,
        250,
        264,
        211,
        389,
        119,
        376,
        97,
        209,
        330,
        277,
        397,
        327,
        373,
        212,
        178,
        319,
        144,
        251,
        130,
        100,
        243,
        152,
        384,
        246,
        395,
        70,
        349,
        317,
        52,
        197,
        388,
        217,
        257,
        323,
        268,
        177,
        175,
        374,
        184,
        303,
        118,
        18,
        218,
        255,
        1,
        347,
        54,
        63,
        7,
        208,
        37,
        216,
        87,
        336,
        128,
        210,
        170,
        113,
        249,
        133,
        76,
        386,
        168,
        167,
        53,
        221,
        334,
        122,
        143,
        69,
        155,
        371,
        107,
        256,
        74,
        304,
        24,
        102,
        131,
        253,
        297,
        96,
        68,
        75,
        194,
        4,
        136,
        351,
        47,
        32,
        56,
        229,
        172,
        93,
        85,
        78,
        271,
        139,
        105,
        22,
        348,
        394,
        267,
        171,
        114,
        190,
        291,
        162,
        275,
        31,
        121,
        123,
        29,
        99,
        324,
        248,
        207,
        19,
        235,
        390,
        91,
        286,
        337,
        238,
        35,
        382,
        2,
        318,
        305,
        320,
        41,
        270,
        367,
        80,
        242,
        329,
        260,
        365,
        10,
        196,
        230,
        298,
        65,
        341,
        282,
        198,
        244,
        101
    ],
    "Global Optimum": 0,
    "Algorithm": "Genetic algorithm",
    "Parameters": {
        "population": 30,
        "offspring": 30,
        "mutation probability": 0.0025,
        "crossover probability": 0.9
    },
    "Fitness": 442650,
    "Solution": [
        195,
        33,
        169,
        393,
        110,
        205,
        359,
        137,
        64,
        285,
        116,
        203,
        360,
        398,
        36,
        356,
        82,
        138,
        370,
        232,
        192,
        383,
        86,
        62,
        43,
        135,
        289,
        372,
        301,
        44,
        9,
        117,
        6,
        8,
        60,
        83,
        237,
        204,
        299,
        355,
        252,
        363,
        126,
        94,
        112,
        199,
        279,
        3,
        331,
        262,
        90,
        357,
        226,
        145,
        309,
        106,
        180,
        239,
        134,
        89,
        227,
        233,
        276,
        375,
        340,
        220,
        104,
        358,
        354,
        328,
        261,
        399,
        335,
        21,
        364,
        181,
        49,
        34,
        20,
        306,
        158,
        292,
        0,
        23,
        59,
        57,
        288,
        38,
        185,
        176,
        45,
        148,
        247,
        236,
        111,
        79,
        25,
        296,
        392,
        206,
        14,
        150,
        219,
        302,
        188,
        214,
        153,
        312,
        164,
        125,
        174,
        321,
        191,
        13,
        245,
        380,
        345,
        40,
        234,
        127,
        39,
        165,
        15,
        163,
        353,
        263,
        215,
        308,
        240,
        310,
        322,
        379,
        325,
        187,
        387,
        157,
        103,
        77,
        166,
        92,
        202,
        66,
        159,
        27,
        339,
        17,
        48,
        368,
        265,
        293,
        224,
        343,
        151,
        307,
        228,
        124,
        160,
        11,
        396,
        259,
        300,
        67,
        55,
        385,
        183,
        81,
        295,
        350,
        149,
        369,
        338,
        269,
        179,
        346,
        287,
        71,
        326,
        284,
        120,
        278,
        140,
        333,
        186,
        5,
        362,
        342,
        42,
        73,
        88,
        26,
        241,
        193,
        201,
        132,
        231,
        46,
        147,
        281,
        129,
        294,
        173,
        84,
        146,
        314,
        200,
        332,
        115,
        290,
        12,
        311,
        222,
        274,
        254,
        223,
        61,
        72,
        141,
        344,
        16,
        30,
        313,
        225,
        154,
        58,
        51,
        361,
        258,
        213,
        95,
        98,
        50,
        391,
        142,
        161,
        378,
        377,
        28,
        109,
        273,
        283,
        280,
        266,
        381,
        315,
        366,
        189,
        352,
        316,
        272,
        182,
        156,
        108,
        250,
        264,
        211,
        389,
        119,
        376,
        97,
        209,
        330,
        277,
        397,
        327,
        373,
        212,
        178,
        319,
        144,
        251,
        130,
        100,
        243,
        152,
        384,
        246,
        395,
        70,
        349,
        317,
        52,
        197,
        388,
        217,
        257,
        323,
        268,
        177,
        175,
        374,
        184,
        303,
        118,
        18,
        218,
        255,
        1,
        347,
        54,
        63,
        7,
        208,
        37,
        216,
        87,
        336,
        128,
        210,
        170,
        113,
        249,
        133,
        76,
        386,
        168,
        167,
        53,
        221,
        334,
        122,
        143,
        69,
        155,
        371,
        107,
        256,
        74,
        304,
        24,
        102,
        131,
        253,
        297,
        96,
        68,
        75,
        194,
        4,
        136,
        351,
        47,
        32,
        56,
        229,
        172,
        93,
        85,
        78,
        271,
        139,
        105,
        22,
        348,
        394,
        267,
        171,
        114,
        190,
        291,
        162,
        275,
        31,
        121,
        123,
        29,
        99,
        324,
        248,
        207,
        19,
        235,
        390,
        91,
        286,
        337,
        238,
        35,
        382,
        2,
        318,
        305,
        320,
        41,
        270,
        367,
        80,
        242,
        329,
        260,
        365,
        10,
        196,
        230,
        298,
        65,
        341,
        282,
        198,
        244,
        101
    ],
    "Nb of functions evaluations": 200010,
    "Computational time in seconds": 533.8186061382294,
    "Stopping criterion in evaluations": 200000
}